; DUP2 MLOAD SWAP2 SWAP4 POP SWAP1 => DUP2 SWAP4 POP SWAP1 MLOAD
(set-option :produce-proofs true)
; 
(set-info :status unknown)
(declare-fun storage_t ((_ BitVec 256) (_ BitVec 256) (_ BitVec 256) (_ BitVec 256) (_ BitVec 256) Int (_ BitVec 256)) (_ BitVec 256))
(declare-fun storage_s ((_ BitVec 256) (_ BitVec 256) (_ BitVec 256) (_ BitVec 256) (_ BitVec 256) Int (_ BitVec 256)) (_ BitVec 256))
(declare-fun exc_halt_t (Int) Bool)
(declare-fun exc_halt_s (Int) Bool)
(declare-fun stack_t ((_ BitVec 256) (_ BitVec 256) (_ BitVec 256) (_ BitVec 256) (_ BitVec 256) Int (_ BitVec 6)) (_ BitVec 256))
(declare-fun stack_s ((_ BitVec 256) (_ BitVec 256) (_ BitVec 256) (_ BitVec 256) (_ BitVec 256) Int (_ BitVec 6)) (_ BitVec 256))
(declare-fun sc_t (Int) (_ BitVec 6))
(declare-fun sc_s (Int) (_ BitVec 6))
(declare-fun used_gas_t ((_ BitVec 256) (_ BitVec 256) (_ BitVec 256) (_ BitVec 256) (_ BitVec 256) Int) Int)
(declare-fun used_gas_s ((_ BitVec 256) (_ BitVec 256) (_ BitVec 256) (_ BitVec 256) (_ BitVec 256) Int) Int)
(declare-fun f_MLOAD ((_ BitVec 256) (_ BitVec 256) (_ BitVec 256) (_ BitVec 256) (_ BitVec 256) (_ BitVec 256)) (_ BitVec 256))
(assert
 (exists ((x_0 (_ BitVec 256)) (x_1 (_ BitVec 256)) (x_2 (_ BitVec 256)) (x_3 (_ BitVec 256)) (x_MLOAD_0 (_ BitVec 256)) )(let (($x6720 (forall ((w (_ BitVec 256)) )(let ((?x247 (storage_t x_0 x_1 x_2 x_3 x_MLOAD_0 5 w)))
 (let ((?x8840 (storage_s x_0 x_1 x_2 x_3 x_MLOAD_0 6 w)))
 (= ?x8840 ?x247))))
 ))
 (let (($x1885 (exc_halt_t 5)))
 (let (($x772 (exc_halt_s 6)))
 (let (($x11108 (= $x772 $x1885)))
 (let (($x10711 (forall ((n (_ BitVec 6)) )(let ((?x878 (stack_t x_0 x_1 x_2 x_3 x_MLOAD_0 5 n)))
 (let ((?x11720 (stack_s x_0 x_1 x_2 x_3 x_MLOAD_0 6 n)))
 (let (($x10865 (= ?x11720 ?x878)))
 (or (bvsle (sc_t 5) n) $x10865)))))
 ))
 (let ((?x8961 (sc_t 5)))
 (let ((?x926 (sc_s 6)))
 (let (($x5889 (= ?x926 ?x8961)))
 (let ((?x9854 (used_gas_t x_0 x_1 x_2 x_3 x_MLOAD_0 0)))
 (let ((?x3325 (used_gas_s x_0 x_1 x_2 x_3 x_MLOAD_0 0)))
 (let (($x10590 (= ?x3325 ?x9854)))
 (let (($x6247 (forall ((w (_ BitVec 256)) )(let ((?x8403 (storage_t x_0 x_1 x_2 x_3 x_MLOAD_0 0 w)))
 (let ((?x2098 (storage_s x_0 x_1 x_2 x_3 x_MLOAD_0 0 w)))
 (= ?x2098 ?x8403))))
 ))
 (let (($x56 (exc_halt_t 0)))
 (let (($x57 (exc_halt_s 0)))
 (let (($x58 (= $x57 $x56)))
 (let (($x2167 (forall ((n (_ BitVec 6)) )(let ((?x7778 (stack_t x_0 x_1 x_2 x_3 x_MLOAD_0 0 n)))
 (let ((?x5069 (stack_s x_0 x_1 x_2 x_3 x_MLOAD_0 0 n)))
 (let (($x8974 (= ?x5069 ?x7778)))
 (let ((?x63 (sc_t 0)))
 (let (($x632 (bvsle ?x63 n)))
 (or $x632 $x8974)))))))
 ))
 (let ((?x63 (sc_t 0)))
 (let ((?x72 (sc_s 0)))
 (let (($x73 (= ?x72 ?x63)))
 (let (($x9786 (= $x1885 (or (exc_halt_t 4) (not (bvsle (_ bv0 6) (bvadd (_ bv63 6) (sc_t 4))))))))
 (let (($x2650 (forall ((w (_ BitVec 256)) )(let ((?x8980 (storage_t x_0 x_1 x_2 x_3 x_MLOAD_0 4 w)))
 (let ((?x247 (storage_t x_0 x_1 x_2 x_3 x_MLOAD_0 5 w)))
 (= ?x247 ?x8980))))
 ))
 (let (($x8796 (forall ((n (_ BitVec 6)) )(let ((?x7274 (stack_t x_0 x_1 x_2 x_3 x_MLOAD_0 4 n)))
 (let ((?x878 (stack_t x_0 x_1 x_2 x_3 x_MLOAD_0 5 n)))
 (or (bvsle (bvadd (_ bv63 6) (sc_t 4)) n) (= ?x878 ?x7274)))))
 ))
 (let ((?x658 (used_gas_t x_0 x_1 x_2 x_3 x_MLOAD_0 5)))
 (let ((?x8101 (sc_t 4)))
 (let ((?x6424 (bvadd (_ bv63 6) ?x8101)))
 (let ((?x836 (stack_t x_0 x_1 x_2 x_3 x_MLOAD_0 4 ?x6424)))
 (let (($x11445 (= (stack_t x_0 x_1 x_2 x_3 x_MLOAD_0 5 (bvadd (_ bv63 6) ?x8961)) (f_MLOAD x_0 x_1 x_2 x_3 x_MLOAD_0 ?x836))))
 (let (($x7854 (exc_halt_t 4)))
 (let (($x5018 (= $x7854 (or (exc_halt_t 3) (not (bvsle (_ bv0 6) (bvadd (_ bv62 6) (sc_t 3))))))))
 (let (($x8645 (forall ((w (_ BitVec 256)) )(let ((?x191 (storage_t x_0 x_1 x_2 x_3 x_MLOAD_0 3 w)))
 (let ((?x8980 (storage_t x_0 x_1 x_2 x_3 x_MLOAD_0 4 w)))
 (= ?x8980 ?x191))))
 ))
 (let (($x1462 (forall ((n (_ BitVec 6)) )(let ((?x8781 (stack_t x_0 x_1 x_2 x_3 x_MLOAD_0 3 n)))
 (let ((?x7274 (stack_t x_0 x_1 x_2 x_3 x_MLOAD_0 4 n)))
 (let (($x675 (= ?x7274 ?x8781)))
 (or $x675 (bvsle (bvadd (_ bv62 6) (sc_t 3)) n))))))
 ))
 (let ((?x11964 (sc_t 3)))
 (let (($x1808 (= ?x8101 ?x11964)))
 (let ((?x11330 (used_gas_t x_0 x_1 x_2 x_3 x_MLOAD_0 4)))
 (let (($x362 (= ?x11330 (+ 3 (used_gas_t x_0 x_1 x_2 x_3 x_MLOAD_0 3)))))
 (let ((?x3587 (bvadd (_ bv63 6) ?x11964)))
 (let ((?x11040 (stack_t x_0 x_1 x_2 x_3 x_MLOAD_0 3 ?x3587)))
 (let (($x4112 (exc_halt_t 3)))
 (let (($x3954 (= $x4112 (or (exc_halt_t 2) (not (bvsle (_ bv0 6) (bvadd (_ bv63 6) (sc_t 2))))))))
 (let (($x9250 (forall ((w (_ BitVec 256)) )(let ((?x11997 (storage_t x_0 x_1 x_2 x_3 x_MLOAD_0 2 w)))
 (let ((?x191 (storage_t x_0 x_1 x_2 x_3 x_MLOAD_0 3 w)))
 (= ?x191 ?x11997))))
 ))
 (let (($x7418 (forall ((n (_ BitVec 6)) )(let ((?x8287 (stack_t x_0 x_1 x_2 x_3 x_MLOAD_0 2 n)))
 (let ((?x8781 (stack_t x_0 x_1 x_2 x_3 x_MLOAD_0 3 n)))
 (or (bvsle (bvadd (_ bv63 6) (sc_t 2)) n) (= ?x8781 ?x8287)))))
 ))
 (let ((?x6602 (sc_t 2)))
 (let ((?x8103 (bvadd (_ bv63 6) ?x6602)))
 (let (($x4982 (= ?x11964 ?x8103)))
 (let ((?x11928 (used_gas_t x_0 x_1 x_2 x_3 x_MLOAD_0 3)))
 (let (($x1056 (= ?x11928 (+ 2 (used_gas_t x_0 x_1 x_2 x_3 x_MLOAD_0 2)))))
 (let (($x9181 (exc_halt_t 2)))
 (let (($x11198 (= $x9181 (or (exc_halt_t 1) (not (bvsle (_ bv0 6) (bvadd (_ bv59 6) (sc_t 1))))))))
 (let (($x5142 (forall ((w (_ BitVec 256)) )(let ((?x10569 (storage_t x_0 x_1 x_2 x_3 x_MLOAD_0 1 w)))
 (let ((?x11997 (storage_t x_0 x_1 x_2 x_3 x_MLOAD_0 2 w)))
 (= ?x11997 ?x10569))))
 ))
 (let (($x222 (forall ((n (_ BitVec 6)) )(let ((?x3299 (stack_t x_0 x_1 x_2 x_3 x_MLOAD_0 1 n)))
 (let ((?x8287 (stack_t x_0 x_1 x_2 x_3 x_MLOAD_0 2 n)))
 (let (($x6187 (= ?x8287 ?x3299)))
 (or $x6187 (bvsle (bvadd (_ bv59 6) (sc_t 1)) n))))))
 ))
 (let ((?x6377 (sc_t 1)))
 (let (($x5631 (= ?x6602 ?x6377)))
 (let ((?x3739 (used_gas_t x_0 x_1 x_2 x_3 x_MLOAD_0 2)))
 (let (($x10417 (= (stack_t x_0 x_1 x_2 x_3 x_MLOAD_0 2 (bvadd (_ bv62 6) ?x6602)) (stack_t x_0 x_1 x_2 x_3 x_MLOAD_0 1 (bvadd (_ bv62 6) ?x6377)))))
 (let (($x246 (= (stack_t x_0 x_1 x_2 x_3 x_MLOAD_0 2 (bvadd (_ bv61 6) ?x6602)) (stack_t x_0 x_1 x_2 x_3 x_MLOAD_0 1 (bvadd (_ bv61 6) ?x6377)))))
 (let (($x832 (= (stack_t x_0 x_1 x_2 x_3 x_MLOAD_0 2 (bvadd (_ bv60 6) ?x6602)) (stack_t x_0 x_1 x_2 x_3 x_MLOAD_0 1 (bvadd (_ bv60 6) ?x6377)))))
 (let ((?x3243 (bvadd (_ bv63 6) ?x6377)))
 (let ((?x6072 (stack_t x_0 x_1 x_2 x_3 x_MLOAD_0 1 ?x3243)))
 (let (($x949 (= (stack_t x_0 x_1 x_2 x_3 x_MLOAD_0 2 ?x8103) (stack_t x_0 x_1 x_2 x_3 x_MLOAD_0 1 (bvadd (_ bv59 6) ?x6377)))))
 (let (($x1117 (not (= ((_ extract 6 6) (bvadd (_ bv1 7) (concat (_ bv0 1) ?x63))) (_ bv0 1)))))
 (let (($x5011 (exc_halt_t 1)))
 (let (($x4264 (forall ((w (_ BitVec 256)) )(let ((?x8403 (storage_t x_0 x_1 x_2 x_3 x_MLOAD_0 0 w)))
 (let ((?x10569 (storage_t x_0 x_1 x_2 x_3 x_MLOAD_0 1 w)))
 (= ?x10569 ?x8403))))
 ))
 (let (($x8587 (forall ((n (_ BitVec 6)) )(let ((?x7778 (stack_t x_0 x_1 x_2 x_3 x_MLOAD_0 0 n)))
 (let ((?x3299 (stack_t x_0 x_1 x_2 x_3 x_MLOAD_0 1 n)))
 (let (($x8953 (= ?x3299 ?x7778)))
 (or (bvsle (bvadd (_ bv62 6) (sc_t 0)) n) $x8953)))))
 ))
 (let (($x11310 (= ?x6377 (bvadd (_ bv1 6) ?x63))))
 (let (($x3264 (= (stack_t x_0 x_1 x_2 x_3 x_MLOAD_0 1 (bvadd (_ bv63 6) ?x63)) (stack_t x_0 x_1 x_2 x_3 x_MLOAD_0 0 (bvadd (_ bv63 6) ?x63)))))
 (let ((?x11487 (bvadd (_ bv62 6) ?x63)))
 (let ((?x11116 (stack_t x_0 x_1 x_2 x_3 x_MLOAD_0 0 ?x11487)))
 (let (($x3384 (= $x772 (or (exc_halt_s 5) (not (bvsle (_ bv0 6) (bvadd (_ bv62 6) (sc_s 5))))))))
 (let (($x9330 (forall ((w (_ BitVec 256)) )(let ((?x10505 (storage_s x_0 x_1 x_2 x_3 x_MLOAD_0 5 w)))
 (let ((?x8840 (storage_s x_0 x_1 x_2 x_3 x_MLOAD_0 6 w)))
 (= ?x8840 ?x10505))))
 ))
 (let (($x7472 (forall ((n (_ BitVec 6)) )(let ((?x2113 (stack_s x_0 x_1 x_2 x_3 x_MLOAD_0 5 n)))
 (let ((?x11720 (stack_s x_0 x_1 x_2 x_3 x_MLOAD_0 6 n)))
 (let (($x392 (= ?x11720 ?x2113)))
 (or $x392 (bvsle (bvadd (_ bv62 6) (sc_s 5)) n))))))
 ))
 (let ((?x8892 (used_gas_s x_0 x_1 x_2 x_3 x_MLOAD_0 6)))
 (let (($x4288 (= (stack_s x_0 x_1 x_2 x_3 x_MLOAD_0 6 (bvadd (_ bv62 6) ?x926)) (stack_s x_0 x_1 x_2 x_3 x_MLOAD_0 5 (bvadd (_ bv63 6) (sc_s 5))))))
 (let (($x4391 (= (stack_s x_0 x_1 x_2 x_3 x_MLOAD_0 6 (bvadd (_ bv63 6) ?x926)) (stack_s x_0 x_1 x_2 x_3 x_MLOAD_0 5 (bvadd (_ bv62 6) (sc_s 5))))))
 (let (($x1862 (exc_halt_s 5)))
 (let (($x7231 (= $x1862 (or (exc_halt_s 4) (not (bvsle (_ bv0 6) (bvadd (_ bv63 6) (sc_s 4))))))))
 (let (($x2997 (forall ((w (_ BitVec 256)) )(let ((?x11374 (storage_s x_0 x_1 x_2 x_3 x_MLOAD_0 4 w)))
 (let ((?x10505 (storage_s x_0 x_1 x_2 x_3 x_MLOAD_0 5 w)))
 (= ?x10505 ?x11374))))
 ))
 (let (($x11819 (forall ((n (_ BitVec 6)) )(let ((?x1697 (stack_s x_0 x_1 x_2 x_3 x_MLOAD_0 4 n)))
 (let ((?x2113 (stack_s x_0 x_1 x_2 x_3 x_MLOAD_0 5 n)))
 (or (bvsle (bvadd (_ bv63 6) (sc_s 4)) n) (= ?x2113 ?x1697)))))
 ))
 (let ((?x500 (sc_s 4)))
 (let ((?x4132 (bvadd (_ bv63 6) ?x500)))
 (let ((?x4319 (sc_s 5)))
 (let (($x11284 (= ?x4319 ?x4132)))
 (let ((?x4653 (used_gas_s x_0 x_1 x_2 x_3 x_MLOAD_0 5)))
 (let (($x9391 (= ?x4653 (+ 2 (used_gas_s x_0 x_1 x_2 x_3 x_MLOAD_0 4)))))
 (let (($x3743 (exc_halt_s 4)))
 (let (($x5584 (= $x3743 (or (exc_halt_s 3) (not (bvsle (_ bv0 6) (bvadd (_ bv59 6) (sc_s 3))))))))
 (let (($x1386 (forall ((w (_ BitVec 256)) )(let ((?x9090 (storage_s x_0 x_1 x_2 x_3 x_MLOAD_0 3 w)))
 (let ((?x11374 (storage_s x_0 x_1 x_2 x_3 x_MLOAD_0 4 w)))
 (= ?x11374 ?x9090))))
 ))
 (let (($x893 (forall ((n (_ BitVec 6)) )(let ((?x995 (stack_s x_0 x_1 x_2 x_3 x_MLOAD_0 3 n)))
 (let ((?x1697 (stack_s x_0 x_1 x_2 x_3 x_MLOAD_0 4 n)))
 (let (($x544 (= ?x1697 ?x995)))
 (or (bvsle (bvadd (_ bv59 6) (sc_s 3)) n) $x544)))))
 ))
 (let ((?x1974 (sc_s 3)))
 (let (($x7752 (= ?x500 ?x1974)))
 (let ((?x9299 (used_gas_s x_0 x_1 x_2 x_3 x_MLOAD_0 4)))
 (let ((?x7556 (bvadd (_ bv62 6) ?x1974)))
 (let ((?x9818 (stack_s x_0 x_1 x_2 x_3 x_MLOAD_0 3 ?x7556)))
 (let ((?x9214 (bvadd (_ bv61 6) ?x1974)))
 (let ((?x6588 (stack_s x_0 x_1 x_2 x_3 x_MLOAD_0 3 ?x9214)))
 (let (($x11194 (= (stack_s x_0 x_1 x_2 x_3 x_MLOAD_0 4 (bvadd (_ bv60 6) ?x500)) (stack_s x_0 x_1 x_2 x_3 x_MLOAD_0 3 (bvadd (_ bv60 6) ?x1974)))))
 (let ((?x2640 (bvadd (_ bv63 6) ?x1974)))
 (let ((?x10161 (stack_s x_0 x_1 x_2 x_3 x_MLOAD_0 3 ?x2640)))
 (let (($x5116 (= (stack_s x_0 x_1 x_2 x_3 x_MLOAD_0 4 ?x4132) (stack_s x_0 x_1 x_2 x_3 x_MLOAD_0 3 (bvadd (_ bv59 6) ?x1974)))))
 (let (($x8780 (exc_halt_s 3)))
 (let (($x2095 (= $x8780 (or (exc_halt_s 2) (not (bvsle (_ bv0 6) (bvadd (_ bv61 6) (sc_s 2))))))))
 (let (($x5104 (forall ((w (_ BitVec 256)) )(let ((?x7255 (storage_s x_0 x_1 x_2 x_3 x_MLOAD_0 2 w)))
 (let ((?x9090 (storage_s x_0 x_1 x_2 x_3 x_MLOAD_0 3 w)))
 (= ?x9090 ?x7255))))
 ))
 (let (($x9699 (forall ((n (_ BitVec 6)) )(let ((?x11304 (stack_s x_0 x_1 x_2 x_3 x_MLOAD_0 2 n)))
 (let ((?x995 (stack_s x_0 x_1 x_2 x_3 x_MLOAD_0 3 n)))
 (let (($x11453 (= ?x995 ?x11304)))
 (let ((?x2620 (sc_s 2)))
 (let ((?x9396 (bvadd (_ bv61 6) ?x2620)))
 (let (($x11142 (bvsle ?x9396 n)))
 (or $x11142 $x11453))))))))
 ))
 (let ((?x11968 (used_gas_s x_0 x_1 x_2 x_3 x_MLOAD_0 3)))
 (let ((?x2620 (sc_s 2)))
 (let ((?x11644 (bvadd (_ bv62 6) ?x2620)))
 (let ((?x5980 (stack_s x_0 x_1 x_2 x_3 x_MLOAD_0 2 ?x11644)))
 (let (($x3200 (exc_halt_s 2)))
 (let (($x6882 (= $x3200 (or (exc_halt_s 1) (not (bvsle (_ bv0 6) (bvadd (_ bv63 6) (sc_s 1))))))))
 (let (($x6436 (forall ((w (_ BitVec 256)) )(let ((?x9939 (storage_s x_0 x_1 x_2 x_3 x_MLOAD_0 1 w)))
 (let ((?x7255 (storage_s x_0 x_1 x_2 x_3 x_MLOAD_0 2 w)))
 (= ?x7255 ?x9939))))
 ))
 (let (($x1972 (forall ((n (_ BitVec 6)) )(let ((?x10100 (stack_s x_0 x_1 x_2 x_3 x_MLOAD_0 1 n)))
 (let ((?x11304 (stack_s x_0 x_1 x_2 x_3 x_MLOAD_0 2 n)))
 (let (($x5632 (= ?x11304 ?x10100)))
 (let ((?x154 (sc_s 1)))
 (let ((?x8586 (bvadd (_ bv63 6) ?x154)))
 (let (($x4241 (bvsle ?x8586 n)))
 (or $x4241 $x5632))))))))
 ))
 (let ((?x154 (sc_s 1)))
 (let (($x6125 (= ?x2620 ?x154)))
 (let ((?x3151 (used_gas_s x_0 x_1 x_2 x_3 x_MLOAD_0 2)))
 (let (($x2137 (= ?x3151 (+ 3 (used_gas_s x_0 x_1 x_2 x_3 x_MLOAD_0 1)))))
 (let ((?x8586 (bvadd (_ bv63 6) ?x154)))
 (let ((?x31 (stack_s x_0 x_1 x_2 x_3 x_MLOAD_0 1 ?x8586)))
 (let ((?x5957 (bvadd (_ bv63 6) ?x2620)))
 (let ((?x8302 (stack_s x_0 x_1 x_2 x_3 x_MLOAD_0 2 ?x5957)))
 (let (($x10548 (not (bvsle (_ bv0 6) (bvadd (_ bv62 6) ?x72)))))
 (let (($x4988 (not (= ((_ extract 6 6) (bvadd (_ bv1 7) (concat (_ bv0 1) ?x72))) (_ bv0 1)))))
 (let (($x10558 (exc_halt_s 1)))
 (let (($x2932 (forall ((w (_ BitVec 256)) )(let ((?x2098 (storage_s x_0 x_1 x_2 x_3 x_MLOAD_0 0 w)))
 (let ((?x9939 (storage_s x_0 x_1 x_2 x_3 x_MLOAD_0 1 w)))
 (= ?x9939 ?x2098))))
 ))
 (let (($x1185 (forall ((n (_ BitVec 6)) )(let ((?x5069 (stack_s x_0 x_1 x_2 x_3 x_MLOAD_0 0 n)))
 (let ((?x10100 (stack_s x_0 x_1 x_2 x_3 x_MLOAD_0 1 n)))
 (let ((?x72 (sc_s 0)))
 (let ((?x3607 (bvadd (_ bv62 6) ?x72)))
 (let (($x824 (bvsle ?x3607 n)))
 (or $x824 (= ?x10100 ?x5069))))))))
 ))
 (let (($x7558 (= ?x154 (bvadd (_ bv1 6) ?x72))))
 (let ((?x1684 (used_gas_s x_0 x_1 x_2 x_3 x_MLOAD_0 1)))
 (let (($x6674 (= ?x1684 (+ 3 ?x3325))))
 (let ((?x4384 (bvadd (_ bv63 6) ?x72)))
 (let ((?x6705 (stack_s x_0 x_1 x_2 x_3 x_MLOAD_0 0 ?x4384)))
 (let ((?x3607 (bvadd (_ bv62 6) ?x72)))
 (let ((?x7956 (stack_s x_0 x_1 x_2 x_3 x_MLOAD_0 0 ?x3607)))
 (let (($x3876 (forall ((w0 (_ BitVec 256)) )(let (($x11055 (= (stack_s x_0 x_1 x_2 x_3 x_MLOAD_0 1 (bvadd (_ bv63 6) (sc_s 1))) w0)))
 (let ((?x9501 (f_MLOAD x_0 x_1 x_2 x_3 x_MLOAD_0 w0)))
 (= ?x9501 (ite $x11055 x_MLOAD_0 (_ bv0 256))))))
 ))
 (let (($x5726 (forall ((w (_ BitVec 256)) )(let ((?x2098 (storage_s x_0 x_1 x_2 x_3 x_MLOAD_0 0 w)))
 (= ?x2098 (_ bv0 256))))
 ))
 (let (($x467 (= ?x3325 0)))
 (let (($x10917 (not $x57)))
 (let (($x6659 (= (stack_s x_0 x_1 x_2 x_3 x_MLOAD_0 0 (_ bv3 6)) x_3)))
 (let (($x138 (= (stack_s x_0 x_1 x_2 x_3 x_MLOAD_0 0 (_ bv2 6)) x_2)))
 (let (($x2258 (= (stack_s x_0 x_1 x_2 x_3 x_MLOAD_0 0 (_ bv1 6)) x_1)))
 (let (($x2346 (= (stack_s x_0 x_1 x_2 x_3 x_MLOAD_0 0 (_ bv0 6)) x_0)))
 (let (($x11199 (= ?x72 (_ bv4 6))))
 (and $x11199 $x2346 $x2258 $x138 $x6659 $x10917 $x467 $x5726 $x3876 (= ?x31 ?x7956) (= (stack_s x_0 x_1 x_2 x_3 x_MLOAD_0 1 ?x3607) ?x7956) (= (stack_s x_0 x_1 x_2 x_3 x_MLOAD_0 1 ?x4384) ?x6705) $x6674 $x7558 $x1185 $x2932 (= $x10558 (or $x57 $x4988 $x10548)) (= ?x8302 (f_MLOAD x_0 x_1 x_2 x_3 x_MLOAD_0 ?x31)) $x2137 $x6125 $x1972 $x6436 $x6882 (= ?x10161 (stack_s x_0 x_1 x_2 x_3 x_MLOAD_0 2 (bvadd (_ bv61 6) ?x2620))) (= ?x6588 ?x8302) (= ?x9818 ?x5980) (= ?x11968 (+ 3 ?x3151)) (= ?x1974 ?x2620) $x9699 $x5104 $x2095 $x5116 (= (stack_s x_0 x_1 x_2 x_3 x_MLOAD_0 4 (bvadd (_ bv59 6) ?x500)) ?x10161) $x11194 (= (stack_s x_0 x_1 x_2 x_3 x_MLOAD_0 4 (bvadd (_ bv61 6) ?x500)) ?x6588) (= (stack_s x_0 x_1 x_2 x_3 x_MLOAD_0 4 (bvadd (_ bv62 6) ?x500)) ?x9818) (= ?x9299 (+ 3 ?x11968)) $x7752 $x893 $x1386 $x5584 $x9391 $x11284 $x11819 $x2997 $x7231 $x4391 $x4288 (= ?x8892 (+ 3 ?x4653)) (= ?x926 ?x4319) $x7472 $x9330 $x3384 (= ?x6072 ?x11116) (= (stack_t x_0 x_1 x_2 x_3 x_MLOAD_0 1 ?x11487) ?x11116) $x3264 (= (used_gas_t x_0 x_1 x_2 x_3 x_MLOAD_0 1) (+ 3 ?x9854)) $x11310 $x8587 $x4264 (= $x5011 (or $x56 $x1117 (not (bvsle (_ bv0 6) ?x11487)))) $x949 (= (stack_t x_0 x_1 x_2 x_3 x_MLOAD_0 2 (bvadd (_ bv59 6) ?x6602)) ?x6072) $x832 $x246 $x10417 (= ?x3739 (+ 3 (used_gas_t x_0 x_1 x_2 x_3 x_MLOAD_0 1))) $x5631 $x222 $x5142 $x11198 $x1056 $x4982 $x7418 $x9250 $x3954 (= ?x836 (stack_t x_0 x_1 x_2 x_3 x_MLOAD_0 3 (bvadd (_ bv62 6) ?x11964))) (= (stack_t x_0 x_1 x_2 x_3 x_MLOAD_0 4 (bvadd (_ bv62 6) ?x8101)) ?x11040) $x362 $x1808 $x1462 $x8645 $x5018 $x11445 (= ?x658 (+ 3 ?x11330)) (= ?x8961 ?x8101) $x8796 $x2650 $x9786 $x73 $x2167 $x58 $x6247 $x10590 (not (and $x5889 $x10711 $x11108 $x6720)))))))))))))))))))))))))))))))))))))))))))))))))))))))))))))))))))))))))))))))))))))))))))))))))))))))))))))))))))))))))))))))))))))))))))))))
 )
(check-sat)
(get-proof)
